NAME CFLP
ROWS
 N  OBJ
 E  demand_1
 E  demand_2
 E  demand_3
 E  demand_4
 E  demand_5
 E  demand_6
 E  demand_7
 E  demand_8
 E  demand_9
 E  demand_10
 E  demand_11
 E  demand_12
 E  demand_13
 E  demand_14
 E  demand_15
 E  demand_16
 E  demand_17
 E  demand_18
 E  demand_19
 E  demand_20
 E  demand_21
 E  demand_22
 E  demand_23
 E  demand_24
 E  demand_25
 E  demand_26
 E  demand_27
 E  demand_28
 E  demand_29
 E  demand_30
 E  demand_31
 L  c_disjunction_1_diajunct_1
 L  c_disjunction_1_disjunct_2
 E  R33     
 L  c_disjunction_2_diajunct_1
 L  c_disjunction_2_disjunct_2
 E  R36     
 L  c_disjunction_3_diajunct_1
 L  c_disjunction_3_disjunct_2
 E  R39     
 L  c_disjunction_4_diajunct_1
 L  c_disjunction_4_disjunct_2
 E  R42     
 L  c_disjunction_5_diajunct_1
 L  c_disjunction_5_disjunct_2
 E  R45     
 L  c_disjunction_6_diajunct_1
 L  c_disjunction_6_disjunct_2
 E  R48     
 L  c_disjunction_7_diajunct_1
 L  c_disjunction_7_disjunct_2
 E  R51     
 L  c_disjunction_8_diajunct_1
 L  c_disjunction_8_disjunct_2
 E  R54     
 L  c_disjunction_9_diajunct_1
 L  c_disjunction_9_disjunct_2
 E  R57     
 L  c_disjunction_10_diajunct_1
 L  c_disjunction_10_disjunct_2
 E  R60     
 L  c_disjunction_11_diajunct_1
 L  c_disjunction_11_disjunct_2
 E  R63     
 L  c_disjunction_12_diajunct_1
 L  c_disjunction_12_disjunct_2
 E  R66     
 L  c_disjunction_13_diajunct_1
 L  c_disjunction_13_disjunct_2
 E  R69     
 L  c_disjunction_14_diajunct_1
 L  c_disjunction_14_disjunct_2
 E  R72     
 L  c_disjunction_15_diajunct_1
 L  c_disjunction_15_disjunct_2
 E  R75     
 L  c_disjunction_16_diajunct_1
 L  c_disjunction_16_disjunct_2
 E  R78     
 L  c_disjunction_17_diajunct_1
 L  c_disjunction_17_disjunct_2
 E  R81     
 L  c_disjunction_18_diajunct_1
 L  c_disjunction_18_disjunct_2
 E  R84     
 L  c_disjunction_19_diajunct_1
 L  c_disjunction_19_disjunct_2
 E  R87     
 L  c_disjunction_20_diajunct_1
 L  c_disjunction_20_disjunct_2
 E  R90     
 L  c_disjunction_21_diajunct_1
 L  c_disjunction_21_disjunct_2
 E  R93     
 L  c_disjunction_22_diajunct_1
 L  c_disjunction_22_disjunct_2
 E  R96     
 L  c_disjunction_23_diajunct_1
 L  c_disjunction_23_disjunct_2
 E  R99     
 L  c_disjunction_24_diajunct_1
 L  c_disjunction_24_disjunct_2
 E  R102    
 L  c_disjunction_25_diajunct_1
 L  c_disjunction_25_disjunct_2
 E  R105    
 L  c_disjunction_26_diajunct_1
 L  c_disjunction_26_disjunct_2
 E  R108    
 L  c_disjunction_27_diajunct_1
 L  c_disjunction_27_disjunct_2
 E  R111    
 L  c_disjunction_28_diajunct_1
 L  c_disjunction_28_disjunct_2
 E  R114    
 L  c_disjunction_29_diajunct_1
 L  c_disjunction_29_disjunct_2
 E  R117    
 L  c_disjunction_30_diajunct_1
 L  c_disjunction_30_disjunct_2
 E  R120    
 L  c_disjunction_31_diajunct_1
 L  c_disjunction_31_disjunct_2
 E  R123    
COLUMNS
    MARKER    'MARKER'                 'INTORG'
    ind_disjunction_1_disjunct_1  OBJ       1105
    ind_disjunction_1_disjunct_1  c_disjunction_1_diajunct_1  -101
    ind_disjunction_1_disjunct_1  R33       1
    ind_disjunction_2_disjunct_1  OBJ       1105
    ind_disjunction_2_disjunct_1  c_disjunction_2_diajunct_1  -101
    ind_disjunction_2_disjunct_1  R36       1
    ind_disjunction_3_disjunct_1  OBJ       1105
    ind_disjunction_3_disjunct_1  c_disjunction_3_diajunct_1  -101
    ind_disjunction_3_disjunct_1  R39       1
    ind_disjunction_4_disjunct_1  OBJ       1105
    ind_disjunction_4_disjunct_1  c_disjunction_4_diajunct_1  -101
    ind_disjunction_4_disjunct_1  R42       1
    ind_disjunction_5_disjunct_1  OBJ       1105
    ind_disjunction_5_disjunct_1  c_disjunction_5_diajunct_1  -101
    ind_disjunction_5_disjunct_1  R45       1
    ind_disjunction_6_disjunct_1  OBJ       1105
    ind_disjunction_6_disjunct_1  c_disjunction_6_diajunct_1  -101
    ind_disjunction_6_disjunct_1  R48       1
    ind_disjunction_7_disjunct_1  OBJ       1105
    ind_disjunction_7_disjunct_1  c_disjunction_7_diajunct_1  -101
    ind_disjunction_7_disjunct_1  R51       1
    ind_disjunction_8_disjunct_1  OBJ       1105
    ind_disjunction_8_disjunct_1  c_disjunction_8_diajunct_1  -101
    ind_disjunction_8_disjunct_1  R54       1
    ind_disjunction_9_disjunct_1  OBJ       1105
    ind_disjunction_9_disjunct_1  c_disjunction_9_diajunct_1  -101
    ind_disjunction_9_disjunct_1  R57       1
    ind_disjunction_10_disjunct_1  OBJ       1105
    ind_disjunction_10_disjunct_1  c_disjunction_10_diajunct_1  -101
    ind_disjunction_10_disjunct_1  R60       1
    ind_disjunction_11_disjunct_1  OBJ       1105
    ind_disjunction_11_disjunct_1  c_disjunction_11_diajunct_1  -101
    ind_disjunction_11_disjunct_1  R63       1
    ind_disjunction_12_disjunct_1  OBJ       1105
    ind_disjunction_12_disjunct_1  c_disjunction_12_diajunct_1  -101
    ind_disjunction_12_disjunct_1  R66       1
    ind_disjunction_13_disjunct_1  OBJ       1105
    ind_disjunction_13_disjunct_1  c_disjunction_13_diajunct_1  -101
    ind_disjunction_13_disjunct_1  R69       1
    ind_disjunction_14_disjunct_1  OBJ       1105
    ind_disjunction_14_disjunct_1  c_disjunction_14_diajunct_1  -101
    ind_disjunction_14_disjunct_1  R72       1
    ind_disjunction_15_disjunct_1  OBJ       1105
    ind_disjunction_15_disjunct_1  c_disjunction_15_diajunct_1  -101
    ind_disjunction_15_disjunct_1  R75       1
    ind_disjunction_16_disjunct_1  OBJ       1105
    ind_disjunction_16_disjunct_1  c_disjunction_16_diajunct_1  -101
    ind_disjunction_16_disjunct_1  R78       1
    ind_disjunction_17_disjunct_1  OBJ       1105
    ind_disjunction_17_disjunct_1  c_disjunction_17_diajunct_1  -101
    ind_disjunction_17_disjunct_1  R81       1
    ind_disjunction_18_disjunct_1  OBJ       1105
    ind_disjunction_18_disjunct_1  c_disjunction_18_diajunct_1  -101
    ind_disjunction_18_disjunct_1  R84       1
    ind_disjunction_19_disjunct_1  OBJ       1105
    ind_disjunction_19_disjunct_1  c_disjunction_19_diajunct_1  -101
    ind_disjunction_19_disjunct_1  R87       1
    ind_disjunction_20_disjunct_1  OBJ       1105
    ind_disjunction_20_disjunct_1  c_disjunction_20_diajunct_1  -101
    ind_disjunction_20_disjunct_1  R90       1
    ind_disjunction_21_disjunct_1  OBJ       1105
    ind_disjunction_21_disjunct_1  c_disjunction_21_diajunct_1  -101
    ind_disjunction_21_disjunct_1  R93       1
    ind_disjunction_22_disjunct_1  OBJ       1105
    ind_disjunction_22_disjunct_1  c_disjunction_22_diajunct_1  -101
    ind_disjunction_22_disjunct_1  R96       1
    ind_disjunction_23_disjunct_1  OBJ       1105
    ind_disjunction_23_disjunct_1  c_disjunction_23_diajunct_1  -101
    ind_disjunction_23_disjunct_1  R99       1
    ind_disjunction_24_disjunct_1  OBJ       1105
    ind_disjunction_24_disjunct_1  c_disjunction_24_diajunct_1  -101
    ind_disjunction_24_disjunct_1  R102      1
    ind_disjunction_25_disjunct_1  OBJ       1105
    ind_disjunction_25_disjunct_1  c_disjunction_25_diajunct_1  -101
    ind_disjunction_25_disjunct_1  R105      1
    ind_disjunction_26_disjunct_1  OBJ       1105
    ind_disjunction_26_disjunct_1  c_disjunction_26_diajunct_1  -101
    ind_disjunction_26_disjunct_1  R108      1
    ind_disjunction_27_disjunct_1  OBJ       1105
    ind_disjunction_27_disjunct_1  c_disjunction_27_diajunct_1  -101
    ind_disjunction_27_disjunct_1  R111      1
    ind_disjunction_28_disjunct_1  OBJ       1105
    ind_disjunction_28_disjunct_1  c_disjunction_28_diajunct_1  -101
    ind_disjunction_28_disjunct_1  R114      1
    ind_disjunction_29_disjunct_1  OBJ       1105
    ind_disjunction_29_disjunct_1  c_disjunction_29_diajunct_1  -101
    ind_disjunction_29_disjunct_1  R117      1
    ind_disjunction_30_disjunct_1  OBJ       1105
    ind_disjunction_30_disjunct_1  c_disjunction_30_diajunct_1  -101
    ind_disjunction_30_disjunct_1  R120      1
    ind_disjunction_31_disjunct_1  OBJ       1105
    ind_disjunction_31_disjunct_1  c_disjunction_31_diajunct_1  -101
    ind_disjunction_31_disjunct_1  R123      1
    ind_disjunction_1_disjunct_2  c_disjunction_1_disjunct_2  2
    ind_disjunction_1_disjunct_2  R33       1
    ind_disjunction_2_disjunct_2  c_disjunction_2_disjunct_2  5
    ind_disjunction_2_disjunct_2  R36       1
    ind_disjunction_3_disjunct_2  c_disjunction_3_disjunct_2  2
    ind_disjunction_3_disjunct_2  R39       1
    ind_disjunction_4_disjunct_2  c_disjunction_4_disjunct_2  4
    ind_disjunction_4_disjunct_2  R42       1
    ind_disjunction_5_disjunct_2  c_disjunction_5_disjunct_2  3
    ind_disjunction_5_disjunct_2  R45       1
    ind_disjunction_6_disjunct_2  c_disjunction_6_disjunct_2  4
    ind_disjunction_6_disjunct_2  R48       1
    ind_disjunction_7_disjunct_2  c_disjunction_7_disjunct_2  4
    ind_disjunction_7_disjunct_2  R51       1
    ind_disjunction_8_disjunct_2  c_disjunction_8_disjunct_2  3
    ind_disjunction_8_disjunct_2  R54       1
    ind_disjunction_9_disjunct_2  c_disjunction_9_disjunct_2  4
    ind_disjunction_9_disjunct_2  R57       1
    ind_disjunction_10_disjunct_2  c_disjunction_10_disjunct_2  4
    ind_disjunction_10_disjunct_2  R60       1
    ind_disjunction_11_disjunct_2  c_disjunction_11_disjunct_2  3
    ind_disjunction_11_disjunct_2  R63       1
    ind_disjunction_12_disjunct_2  c_disjunction_12_disjunct_2  4
    ind_disjunction_12_disjunct_2  R66       1
    ind_disjunction_13_disjunct_2  c_disjunction_13_disjunct_2  1
    ind_disjunction_13_disjunct_2  R69       1
    ind_disjunction_14_disjunct_2  c_disjunction_14_disjunct_2  2
    ind_disjunction_14_disjunct_2  R72       1
    ind_disjunction_15_disjunct_2  c_disjunction_15_disjunct_2  2
    ind_disjunction_15_disjunct_2  R75       1
    ind_disjunction_16_disjunct_2  c_disjunction_16_disjunct_2  3
    ind_disjunction_16_disjunct_2  R78       1
    ind_disjunction_17_disjunct_2  c_disjunction_17_disjunct_2  1
    ind_disjunction_17_disjunct_2  R81       1
    ind_disjunction_18_disjunct_2  c_disjunction_18_disjunct_2  3
    ind_disjunction_18_disjunct_2  R84       1
    ind_disjunction_19_disjunct_2  c_disjunction_19_disjunct_2  3
    ind_disjunction_19_disjunct_2  R87       1
    ind_disjunction_20_disjunct_2  c_disjunction_20_disjunct_2  2
    ind_disjunction_20_disjunct_2  R90       1
    ind_disjunction_21_disjunct_2  c_disjunction_21_disjunct_2  3
    ind_disjunction_21_disjunct_2  R93       1
    ind_disjunction_22_disjunct_2  c_disjunction_22_disjunct_2  3
    ind_disjunction_22_disjunct_2  R96       1
    ind_disjunction_23_disjunct_2  c_disjunction_23_disjunct_2  4
    ind_disjunction_23_disjunct_2  R99       1
    ind_disjunction_24_disjunct_2  c_disjunction_24_disjunct_2  3
    ind_disjunction_24_disjunct_2  R102      1
    ind_disjunction_25_disjunct_2  c_disjunction_25_disjunct_2  4
    ind_disjunction_25_disjunct_2  R105      1
    ind_disjunction_26_disjunct_2  c_disjunction_26_disjunct_2  2
    ind_disjunction_26_disjunct_2  R108      1
    ind_disjunction_27_disjunct_2  c_disjunction_27_disjunct_2  3
    ind_disjunction_27_disjunct_2  R111      1
    ind_disjunction_28_disjunct_2  c_disjunction_28_disjunct_2  3
    ind_disjunction_28_disjunct_2  R114      1
    ind_disjunction_29_disjunct_2  c_disjunction_29_disjunct_2  4
    ind_disjunction_29_disjunct_2  R117      1
    ind_disjunction_30_disjunct_2  c_disjunction_30_disjunct_2  3
    ind_disjunction_30_disjunct_2  R120      1
    ind_disjunction_31_disjunct_2  c_disjunction_31_disjunct_2  2
    ind_disjunction_31_disjunct_2  R123      1
    x[1,1]    demand_1  1
    x[1,1]    c_disjunction_1_diajunct_1  27
    x[1,1]    c_disjunction_1_disjunct_2  1
    x[16,1]   OBJ       27.4
    x[16,1]   demand_1  1
    x[16,1]   c_disjunction_16_diajunct_1  27
    x[16,1]   c_disjunction_16_disjunct_2  1
    x[18,1]   OBJ       48.4
    x[18,1]   demand_1  1
    x[18,1]   c_disjunction_18_diajunct_1  27
    x[18,1]   c_disjunction_18_disjunct_2  1
    x[2,2]    demand_2  1
    x[2,2]    c_disjunction_2_diajunct_1  25
    x[2,2]    c_disjunction_2_disjunct_2  1
    x[8,2]    OBJ       39.2
    x[8,2]    demand_2  1
    x[8,2]    c_disjunction_8_diajunct_1  25
    x[8,2]    c_disjunction_8_disjunct_2  1
    x[5,2]    OBJ       43.7
    x[5,2]    demand_2  1
    x[5,2]    c_disjunction_5_diajunct_1  25
    x[5,2]    c_disjunction_5_disjunct_2  1
    x[3,3]    demand_3  1
    x[3,3]    c_disjunction_3_diajunct_1  25
    x[3,3]    c_disjunction_3_disjunct_2  1
    x[30,3]   OBJ       33.9
    x[30,3]   demand_3  1
    x[30,3]   c_disjunction_30_diajunct_1  25
    x[30,3]   c_disjunction_30_disjunct_2  1
    x[12,3]   OBJ       58.6
    x[12,3]   demand_3  1
    x[12,3]   c_disjunction_12_diajunct_1  25
    x[12,3]   c_disjunction_12_disjunct_2  1
    x[4,4]    demand_4  1
    x[4,4]    c_disjunction_4_diajunct_1  8
    x[4,4]    c_disjunction_4_disjunct_2  1
    x[23,4]   OBJ       4.1
    x[23,4]   demand_4  1
    x[23,4]   c_disjunction_23_diajunct_1  8
    x[23,4]   c_disjunction_23_disjunct_2  1
    x[10,4]   OBJ       9.5
    x[10,4]   demand_4  1
    x[10,4]   c_disjunction_10_diajunct_1  8
    x[10,4]   c_disjunction_10_disjunct_2  1
    x[5,5]    demand_5  1
    x[5,5]    c_disjunction_5_diajunct_1  9
    x[5,5]    c_disjunction_5_disjunct_2  1
    x[2,5]    OBJ       15.7
    x[2,5]    demand_5  1
    x[2,5]    c_disjunction_2_diajunct_1  9
    x[2,5]    c_disjunction_2_disjunct_2  1
    x[4,5]    OBJ       16.1
    x[4,5]    demand_5  1
    x[4,5]    c_disjunction_4_diajunct_1  9
    x[4,5]    c_disjunction_4_disjunct_2  1
    x[6,6]    demand_6  1
    x[6,6]    c_disjunction_6_diajunct_1  22
    x[6,6]    c_disjunction_6_disjunct_2  1
    x[10,6]   OBJ       15.9
    x[10,6]   demand_6  1
    x[10,6]   c_disjunction_10_diajunct_1  22
    x[10,6]   c_disjunction_10_disjunct_2  1
    x[27,6]   OBJ       19.7
    x[27,6]   demand_6  1
    x[27,6]   c_disjunction_27_diajunct_1  22
    x[27,6]   c_disjunction_27_disjunct_2  1
    x[7,7]    demand_7  1
    x[7,7]    c_disjunction_7_diajunct_1  25
    x[7,7]    c_disjunction_7_disjunct_2  1
    x[28,7]   OBJ       27.1
    x[28,7]   demand_7  1
    x[28,7]   c_disjunction_28_diajunct_1  25
    x[28,7]   c_disjunction_28_disjunct_2  1
    x[18,7]   OBJ       35.2
    x[18,7]   demand_7  1
    x[18,7]   c_disjunction_18_diajunct_1  25
    x[18,7]   c_disjunction_18_disjunct_2  1
    x[8,8]    demand_8  1
    x[8,8]    c_disjunction_8_diajunct_1  5
    x[8,8]    c_disjunction_8_disjunct_2  1
    x[19,8]   OBJ       2.9
    x[19,8]   demand_8  1
    x[19,8]   c_disjunction_19_diajunct_1  5
    x[19,8]   c_disjunction_19_disjunct_2  1
    x[2,8]    OBJ       7.8
    x[2,8]    demand_8  1
    x[2,8]    c_disjunction_2_diajunct_1  5
    x[2,8]    c_disjunction_2_disjunct_2  1
    x[9,9]    demand_9  1
    x[9,9]    c_disjunction_9_diajunct_1  28
    x[9,9]    c_disjunction_9_disjunct_2  1
    x[27,9]   OBJ       19.2
    x[27,9]   demand_9  1
    x[27,9]   c_disjunction_27_diajunct_1  28
    x[27,9]   c_disjunction_27_disjunct_2  1
    x[29,9]   OBJ       31.6
    x[29,9]   demand_9  1
    x[29,9]   c_disjunction_29_diajunct_1  28
    x[29,9]   c_disjunction_29_disjunct_2  1
    x[10,10]  demand_10  1
    x[10,10]  c_disjunction_10_diajunct_1  19
    x[10,10]  c_disjunction_10_disjunct_2  1
    x[23,10]  OBJ       12.9
    x[23,10]  demand_10  1
    x[23,10]  c_disjunction_23_diajunct_1  19
    x[23,10]  c_disjunction_23_disjunct_2  1
    x[6,10]   OBJ       13.8
    x[6,10]   demand_10  1
    x[6,10]   c_disjunction_6_diajunct_1  19
    x[6,10]   c_disjunction_6_disjunct_2  1
    x[11,11]  demand_11  1
    x[11,11]  c_disjunction_11_diajunct_1  16
    x[11,11]  c_disjunction_11_disjunct_2  1
    x[24,11]  OBJ       15.7
    x[24,11]  demand_11  1
    x[24,11]  c_disjunction_24_diajunct_1  16
    x[24,11]  c_disjunction_24_disjunct_2  1
    x[12,11]  OBJ       25.7
    x[12,11]  demand_11  1
    x[12,11]  c_disjunction_12_diajunct_1  16
    x[12,11]  c_disjunction_12_disjunct_2  1
    x[12,12]  demand_12  1
    x[12,12]  c_disjunction_12_diajunct_1  17
    x[12,12]  c_disjunction_12_disjunct_2  1
    x[24,12]  OBJ       10.8
    x[24,12]  demand_12  1
    x[24,12]  c_disjunction_24_diajunct_1  17
    x[24,12]  c_disjunction_24_disjunct_2  1
    x[11,12]  OBJ       27.3
    x[11,12]  demand_12  1
    x[11,12]  c_disjunction_11_diajunct_1  17
    x[11,12]  c_disjunction_11_disjunct_2  1
    x[13,13]  demand_13  1
    x[13,13]  c_disjunction_13_diajunct_1  5
    x[13,13]  c_disjunction_13_disjunct_2  1
    x[5,13]   OBJ       12.1
    x[5,13]   demand_13  1
    x[5,13]   c_disjunction_5_diajunct_1  5
    x[5,13]   c_disjunction_5_disjunct_2  1
    x[19,13]  OBJ       13
    x[19,13]  demand_13  1
    x[19,13]  c_disjunction_19_diajunct_1  5
    x[19,13]  c_disjunction_19_disjunct_2  1
    x[14,14]  demand_14  1
    x[14,14]  c_disjunction_14_diajunct_1  5
    x[14,14]  c_disjunction_14_disjunct_2  1
    x[25,14]  OBJ       7.4
    x[25,14]  demand_14  1
    x[25,14]  c_disjunction_25_diajunct_1  5
    x[25,14]  c_disjunction_25_disjunct_2  1
    x[2,14]   OBJ       9.8
    x[2,14]   demand_14  1
    x[2,14]   c_disjunction_2_diajunct_1  5
    x[2,14]   c_disjunction_2_disjunct_2  1
    x[15,15]  demand_15  1
    x[15,15]  c_disjunction_15_diajunct_1  17
    x[15,15]  c_disjunction_15_disjunct_2  1
    x[29,15]  OBJ       22.8
    x[29,15]  demand_15  1
    x[29,15]  c_disjunction_29_diajunct_1  17
    x[29,15]  c_disjunction_29_disjunct_2  1
    x[9,15]   OBJ       33.5
    x[9,15]   demand_15  1
    x[9,15]   c_disjunction_9_diajunct_1  17
    x[9,15]   c_disjunction_9_disjunct_2  1
    x[16,16]  demand_16  1
    x[16,16]  c_disjunction_16_diajunct_1  19
    x[16,16]  c_disjunction_16_disjunct_2  1
    x[1,16]   OBJ       19.3
    x[1,16]   demand_16  1
    x[1,16]   c_disjunction_1_diajunct_1  19
    x[1,16]   c_disjunction_1_disjunct_2  1
    x[22,16]  OBJ       30.6
    x[22,16]  demand_16  1
    x[22,16]  c_disjunction_22_diajunct_1  19
    x[22,16]  c_disjunction_22_disjunct_2  1
    x[17,17]  demand_17  1
    x[17,17]  c_disjunction_17_diajunct_1  9
    x[17,17]  c_disjunction_17_disjunct_2  1
    x[23,17]  OBJ       12.5
    x[23,17]  demand_17  1
    x[23,17]  c_disjunction_23_diajunct_1  9
    x[23,17]  c_disjunction_23_disjunct_2  1
    x[4,17]   OBJ       13
    x[4,17]   demand_17  1
    x[4,17]   c_disjunction_4_diajunct_1  9
    x[4,17]   c_disjunction_4_disjunct_2  1
    x[18,18]  demand_18  1
    x[18,18]  c_disjunction_18_diajunct_1  12
    x[18,18]  c_disjunction_18_disjunct_2  1
    x[6,18]   OBJ       14.5
    x[6,18]   demand_18  1
    x[6,18]   c_disjunction_6_diajunct_1  12
    x[6,18]   c_disjunction_6_disjunct_2  1
    x[7,18]   OBJ       16.9
    x[7,18]   demand_18  1
    x[7,18]   c_disjunction_7_diajunct_1  12
    x[7,18]   c_disjunction_7_disjunct_2  1
    x[19,19]  demand_19  1
    x[19,19]  c_disjunction_19_diajunct_1  23
    x[19,19]  c_disjunction_19_disjunct_2  1
    x[8,19]   OBJ       13.3
    x[8,19]   demand_19  1
    x[8,19]   c_disjunction_8_diajunct_1  23
    x[8,19]   c_disjunction_8_disjunct_2  1
    x[2,19]   OBJ       48.7
    x[2,19]   demand_19  1
    x[2,19]   c_disjunction_2_diajunct_1  23
    x[2,19]   c_disjunction_2_disjunct_2  1
    x[20,20]  demand_20  1
    x[20,20]  c_disjunction_20_diajunct_1  6
    x[20,20]  c_disjunction_20_disjunct_2  1
    x[31,20]  OBJ       6.6
    x[31,20]  demand_20  1
    x[31,20]  c_disjunction_31_diajunct_1  6
    x[31,20]  c_disjunction_31_disjunct_2  1
    x[7,20]   OBJ       11.4
    x[7,20]   demand_20  1
    x[7,20]   c_disjunction_7_diajunct_1  6
    x[7,20]   c_disjunction_7_disjunct_2  1
    x[21,21]  demand_21  1
    x[21,21]  c_disjunction_21_diajunct_1  11
    x[21,21]  c_disjunction_21_disjunct_2  1
    x[25,21]  OBJ       15.4
    x[25,21]  demand_21  1
    x[25,21]  c_disjunction_25_diajunct_1  11
    x[25,21]  c_disjunction_25_disjunct_2  1
    x[26,21]  OBJ       17.9
    x[26,21]  demand_21  1
    x[26,21]  c_disjunction_26_diajunct_1  11
    x[26,21]  c_disjunction_26_disjunct_2  1
    x[22,22]  demand_22  1
    x[22,22]  c_disjunction_22_diajunct_1  13
    x[22,22]  c_disjunction_22_disjunct_2  1
    x[16,22]  OBJ       20.9
    x[16,22]  demand_22  1
    x[16,22]  c_disjunction_16_diajunct_1  13
    x[16,22]  c_disjunction_16_disjunct_2  1
    x[30,22]  OBJ       20.9
    x[30,22]  demand_22  1
    x[30,22]  c_disjunction_30_diajunct_1  13
    x[30,22]  c_disjunction_30_disjunct_2  1
    x[23,23]  demand_23  1
    x[23,23]  c_disjunction_23_diajunct_1  23
    x[23,23]  c_disjunction_23_disjunct_2  1
    x[4,23]   OBJ       11.8
    x[4,23]   demand_23  1
    x[4,23]   c_disjunction_4_diajunct_1  23
    x[4,23]   c_disjunction_4_disjunct_2  1
    x[10,23]  OBJ       15.7
    x[10,23]  demand_23  1
    x[10,23]  c_disjunction_10_diajunct_1  23
    x[10,23]  c_disjunction_10_disjunct_2  1
    x[24,24]  demand_24  1
    x[24,24]  c_disjunction_24_diajunct_1  24
    x[24,24]  c_disjunction_24_disjunct_2  1
    x[12,24]  OBJ       15.2
    x[12,24]  demand_24  1
    x[12,24]  c_disjunction_12_diajunct_1  24
    x[12,24]  c_disjunction_12_disjunct_2  1
    x[11,24]  OBJ       23.6
    x[11,24]  demand_24  1
    x[11,24]  c_disjunction_11_diajunct_1  24
    x[11,24]  c_disjunction_11_disjunct_2  1
    x[25,25]  demand_25  1
    x[25,25]  c_disjunction_25_diajunct_1  18
    x[25,25]  c_disjunction_25_disjunct_2  1
    x[21,25]  OBJ       25.3
    x[21,25]  demand_25  1
    x[21,25]  c_disjunction_21_diajunct_1  18
    x[21,25]  c_disjunction_21_disjunct_2  1
    x[14,25]  OBJ       26.6
    x[14,25]  demand_25  1
    x[14,25]  c_disjunction_14_diajunct_1  18
    x[14,25]  c_disjunction_14_disjunct_2  1
    x[26,26]  demand_26  1
    x[26,26]  c_disjunction_26_diajunct_1  13
    x[26,26]  c_disjunction_26_disjunct_2  1
    x[21,26]  OBJ       21.2
    x[21,26]  demand_26  1
    x[21,26]  c_disjunction_21_diajunct_1  13
    x[21,26]  c_disjunction_21_disjunct_2  1
    x[25,26]  OBJ       27
    x[25,26]  demand_26  1
    x[25,26]  c_disjunction_25_diajunct_1  13
    x[25,26]  c_disjunction_25_disjunct_2  1
    x[27,27]  demand_27  1
    x[27,27]  c_disjunction_27_diajunct_1  16
    x[27,27]  c_disjunction_27_disjunct_2  1
    x[9,27]   OBJ       11
    x[9,27]   demand_27  1
    x[9,27]   c_disjunction_9_diajunct_1  16
    x[9,27]   c_disjunction_9_disjunct_2  1
    x[6,27]   OBJ       14.3
    x[6,27]   demand_27  1
    x[6,27]   c_disjunction_6_diajunct_1  16
    x[6,27]   c_disjunction_6_disjunct_2  1
    x[28,28]  demand_28  1
    x[28,28]  c_disjunction_28_diajunct_1  17
    x[28,28]  c_disjunction_28_disjunct_2  1
    x[7,28]   OBJ       18.4
    x[7,28]   demand_28  1
    x[7,28]   c_disjunction_7_diajunct_1  17
    x[7,28]   c_disjunction_7_disjunct_2  1
    x[29,28]  OBJ       22.9
    x[29,28]  demand_28  1
    x[29,28]  c_disjunction_29_diajunct_1  17
    x[29,28]  c_disjunction_29_disjunct_2  1
    x[29,29]  demand_29  1
    x[29,29]  c_disjunction_29_diajunct_1  21
    x[29,29]  c_disjunction_29_disjunct_2  1
    x[9,29]   OBJ       23.7
    x[9,29]   demand_29  1
    x[9,29]   c_disjunction_9_diajunct_1  21
    x[9,29]   c_disjunction_9_disjunct_2  1
    x[15,29]  OBJ       28.1
    x[15,29]  demand_29  1
    x[15,29]  c_disjunction_15_diajunct_1  21
    x[15,29]  c_disjunction_15_disjunct_2  1
    x[30,30]  demand_30  1
    x[30,30]  c_disjunction_30_diajunct_1  17
    x[30,30]  c_disjunction_30_disjunct_2  1
    x[3,30]   OBJ       23
    x[3,30]   demand_30  1
    x[3,30]   c_disjunction_3_diajunct_1  17
    x[3,30]   c_disjunction_3_disjunct_2  1
    x[22,30]  OBJ       27.4
    x[22,30]  demand_30  1
    x[22,30]  c_disjunction_22_diajunct_1  17
    x[22,30]  c_disjunction_22_disjunct_2  1
    x[31,31]  demand_31  1
    x[31,31]  c_disjunction_31_diajunct_1  30
    x[31,31]  c_disjunction_31_disjunct_2  1
    x[20,31]  OBJ       32.8
    x[20,31]  demand_31  1
    x[20,31]  c_disjunction_20_diajunct_1  30
    x[20,31]  c_disjunction_20_disjunct_2  1
    x[28,31]  OBJ       41.1
    x[28,31]  demand_31  1
    x[28,31]  c_disjunction_28_diajunct_1  30
    x[28,31]  c_disjunction_28_disjunct_2  1
    MARKER    'MARKER'                 'INTEND'
RHS
    RHS1      demand_1  1
    RHS1      demand_2  1
    RHS1      demand_3  1
    RHS1      demand_4  1
    RHS1      demand_5  1
    RHS1      demand_6  1
    RHS1      demand_7  1
    RHS1      demand_8  1
    RHS1      demand_9  1
    RHS1      demand_10  1
    RHS1      demand_11  1
    RHS1      demand_12  1
    RHS1      demand_13  1
    RHS1      demand_14  1
    RHS1      demand_15  1
    RHS1      demand_16  1
    RHS1      demand_17  1
    RHS1      demand_18  1
    RHS1      demand_19  1
    RHS1      demand_20  1
    RHS1      demand_21  1
    RHS1      demand_22  1
    RHS1      demand_23  1
    RHS1      demand_24  1
    RHS1      demand_25  1
    RHS1      demand_26  1
    RHS1      demand_27  1
    RHS1      demand_28  1
    RHS1      demand_29  1
    RHS1      demand_30  1
    RHS1      demand_31  1
    RHS1      c_disjunction_1_disjunct_2  2
    RHS1      R33       1
    RHS1      c_disjunction_2_disjunct_2  5
    RHS1      R36       1
    RHS1      c_disjunction_3_disjunct_2  2
    RHS1      R39       1
    RHS1      c_disjunction_4_disjunct_2  4
    RHS1      R42       1
    RHS1      c_disjunction_5_disjunct_2  3
    RHS1      R45       1
    RHS1      c_disjunction_6_disjunct_2  4
    RHS1      R48       1
    RHS1      c_disjunction_7_disjunct_2  4
    RHS1      R51       1
    RHS1      c_disjunction_8_disjunct_2  3
    RHS1      R54       1
    RHS1      c_disjunction_9_disjunct_2  4
    RHS1      R57       1
    RHS1      c_disjunction_10_disjunct_2  4
    RHS1      R60       1
    RHS1      c_disjunction_11_disjunct_2  3
    RHS1      R63       1
    RHS1      c_disjunction_12_disjunct_2  4
    RHS1      R66       1
    RHS1      c_disjunction_13_disjunct_2  1
    RHS1      R69       1
    RHS1      c_disjunction_14_disjunct_2  2
    RHS1      R72       1
    RHS1      c_disjunction_15_disjunct_2  2
    RHS1      R75       1
    RHS1      c_disjunction_16_disjunct_2  3
    RHS1      R78       1
    RHS1      c_disjunction_17_disjunct_2  1
    RHS1      R81       1
    RHS1      c_disjunction_18_disjunct_2  3
    RHS1      R84       1
    RHS1      c_disjunction_19_disjunct_2  3
    RHS1      R87       1
    RHS1      c_disjunction_20_disjunct_2  2
    RHS1      R90       1
    RHS1      c_disjunction_21_disjunct_2  3
    RHS1      R93       1
    RHS1      c_disjunction_22_disjunct_2  3
    RHS1      R96       1
    RHS1      c_disjunction_23_disjunct_2  4
    RHS1      R99       1
    RHS1      c_disjunction_24_disjunct_2  3
    RHS1      R102      1
    RHS1      c_disjunction_25_disjunct_2  4
    RHS1      R105      1
    RHS1      c_disjunction_26_disjunct_2  2
    RHS1      R108      1
    RHS1      c_disjunction_27_disjunct_2  3
    RHS1      R111      1
    RHS1      c_disjunction_28_disjunct_2  3
    RHS1      R114      1
    RHS1      c_disjunction_29_disjunct_2  4
    RHS1      R117      1
    RHS1      c_disjunction_30_disjunct_2  3
    RHS1      R120      1
    RHS1      c_disjunction_31_disjunct_2  2
    RHS1      R123      1
BOUNDS
 BV BND1      ind_disjunction_1_disjunct_1
 BV BND1      ind_disjunction_2_disjunct_1
 BV BND1      ind_disjunction_3_disjunct_1
 BV BND1      ind_disjunction_4_disjunct_1
 BV BND1      ind_disjunction_5_disjunct_1
 BV BND1      ind_disjunction_6_disjunct_1
 BV BND1      ind_disjunction_7_disjunct_1
 BV BND1      ind_disjunction_8_disjunct_1
 BV BND1      ind_disjunction_9_disjunct_1
 BV BND1      ind_disjunction_10_disjunct_1
 BV BND1      ind_disjunction_11_disjunct_1
 BV BND1      ind_disjunction_12_disjunct_1
 BV BND1      ind_disjunction_13_disjunct_1
 BV BND1      ind_disjunction_14_disjunct_1
 BV BND1      ind_disjunction_15_disjunct_1
 BV BND1      ind_disjunction_16_disjunct_1
 BV BND1      ind_disjunction_17_disjunct_1
 BV BND1      ind_disjunction_18_disjunct_1
 BV BND1      ind_disjunction_19_disjunct_1
 BV BND1      ind_disjunction_20_disjunct_1
 BV BND1      ind_disjunction_21_disjunct_1
 BV BND1      ind_disjunction_22_disjunct_1
 BV BND1      ind_disjunction_23_disjunct_1
 BV BND1      ind_disjunction_24_disjunct_1
 BV BND1      ind_disjunction_25_disjunct_1
 BV BND1      ind_disjunction_26_disjunct_1
 BV BND1      ind_disjunction_27_disjunct_1
 BV BND1      ind_disjunction_28_disjunct_1
 BV BND1      ind_disjunction_29_disjunct_1
 BV BND1      ind_disjunction_30_disjunct_1
 BV BND1      ind_disjunction_31_disjunct_1
 BV BND1      ind_disjunction_1_disjunct_2
 BV BND1      ind_disjunction_2_disjunct_2
 BV BND1      ind_disjunction_3_disjunct_2
 BV BND1      ind_disjunction_4_disjunct_2
 BV BND1      ind_disjunction_5_disjunct_2
 BV BND1      ind_disjunction_6_disjunct_2
 BV BND1      ind_disjunction_7_disjunct_2
 BV BND1      ind_disjunction_8_disjunct_2
 BV BND1      ind_disjunction_9_disjunct_2
 BV BND1      ind_disjunction_10_disjunct_2
 BV BND1      ind_disjunction_11_disjunct_2
 BV BND1      ind_disjunction_12_disjunct_2
 BV BND1      ind_disjunction_13_disjunct_2
 BV BND1      ind_disjunction_14_disjunct_2
 BV BND1      ind_disjunction_15_disjunct_2
 BV BND1      ind_disjunction_16_disjunct_2
 BV BND1      ind_disjunction_17_disjunct_2
 BV BND1      ind_disjunction_18_disjunct_2
 BV BND1      ind_disjunction_19_disjunct_2
 BV BND1      ind_disjunction_20_disjunct_2
 BV BND1      ind_disjunction_21_disjunct_2
 BV BND1      ind_disjunction_22_disjunct_2
 BV BND1      ind_disjunction_23_disjunct_2
 BV BND1      ind_disjunction_24_disjunct_2
 BV BND1      ind_disjunction_25_disjunct_2
 BV BND1      ind_disjunction_26_disjunct_2
 BV BND1      ind_disjunction_27_disjunct_2
 BV BND1      ind_disjunction_28_disjunct_2
 BV BND1      ind_disjunction_29_disjunct_2
 BV BND1      ind_disjunction_30_disjunct_2
 BV BND1      ind_disjunction_31_disjunct_2
 BV BND1      x[1,1]  
 BV BND1      x[16,1] 
 BV BND1      x[18,1] 
 BV BND1      x[2,2]  
 BV BND1      x[8,2]  
 BV BND1      x[5,2]  
 BV BND1      x[3,3]  
 BV BND1      x[30,3] 
 BV BND1      x[12,3] 
 BV BND1      x[4,4]  
 BV BND1      x[23,4] 
 BV BND1      x[10,4] 
 BV BND1      x[5,5]  
 BV BND1      x[2,5]  
 BV BND1      x[4,5]  
 BV BND1      x[6,6]  
 BV BND1      x[10,6] 
 BV BND1      x[27,6] 
 BV BND1      x[7,7]  
 BV BND1      x[28,7] 
 BV BND1      x[18,7] 
 BV BND1      x[8,8]  
 BV BND1      x[19,8] 
 BV BND1      x[2,8]  
 BV BND1      x[9,9]  
 BV BND1      x[27,9] 
 BV BND1      x[29,9] 
 BV BND1      x[10,10]
 BV BND1      x[23,10]
 BV BND1      x[6,10] 
 BV BND1      x[11,11]
 BV BND1      x[24,11]
 BV BND1      x[12,11]
 BV BND1      x[12,12]
 BV BND1      x[24,12]
 BV BND1      x[11,12]
 BV BND1      x[13,13]
 BV BND1      x[5,13] 
 BV BND1      x[19,13]
 BV BND1      x[14,14]
 BV BND1      x[25,14]
 BV BND1      x[2,14] 
 BV BND1      x[15,15]
 BV BND1      x[29,15]
 BV BND1      x[9,15] 
 BV BND1      x[16,16]
 BV BND1      x[1,16] 
 BV BND1      x[22,16]
 BV BND1      x[17,17]
 BV BND1      x[23,17]
 BV BND1      x[4,17] 
 BV BND1      x[18,18]
 BV BND1      x[6,18] 
 BV BND1      x[7,18] 
 BV BND1      x[19,19]
 BV BND1      x[8,19] 
 BV BND1      x[2,19] 
 BV BND1      x[20,20]
 BV BND1      x[31,20]
 BV BND1      x[7,20] 
 BV BND1      x[21,21]
 BV BND1      x[25,21]
 BV BND1      x[26,21]
 BV BND1      x[22,22]
 BV BND1      x[16,22]
 BV BND1      x[30,22]
 BV BND1      x[23,23]
 BV BND1      x[4,23] 
 BV BND1      x[10,23]
 BV BND1      x[24,24]
 BV BND1      x[12,24]
 BV BND1      x[11,24]
 BV BND1      x[25,25]
 BV BND1      x[21,25]
 BV BND1      x[14,25]
 BV BND1      x[26,26]
 BV BND1      x[21,26]
 BV BND1      x[25,26]
 BV BND1      x[27,27]
 BV BND1      x[9,27] 
 BV BND1      x[6,27] 
 BV BND1      x[28,28]
 BV BND1      x[7,28] 
 BV BND1      x[29,28]
 BV BND1      x[29,29]
 BV BND1      x[9,29] 
 BV BND1      x[15,29]
 BV BND1      x[30,30]
 BV BND1      x[3,30] 
 BV BND1      x[22,30]
 BV BND1      x[31,31]
 BV BND1      x[20,31]
 BV BND1      x[28,31]
ENDATA
